p cnf 25 50
1 -14 -13 -18 0
17 0
-7 11 -13 0
18 0
12 0
-4 0
1 -24 16 17 25 0
-23 -20 -11 -2 0
-6 3 6 0
-5 -12 0
-24 12 -18 19 -5 0
-14 -5 14 -25 0
4 21 25 -4 -3 0
-24 -6 0
-23 17 25 0
-16 -15 24 25 -7 0
-8 -5 0
1 -3 0
-2 0
-17 0
-2 0
-6 -25 -3 15 0
-15 -6 -2 0
-23 19 -13 -12 -11 0
5 12 14 -11 -4 0
6 0
-8 -13 0
-7 -14 0
-22 13 -18 14 -5 0
24 -7 6 0
24 0
23 0
-11 6 7 0
-7 18 14 0
-16 -13 20 22 -6 0
-15 -17 0
22 0
3 20 -3 0
7 0
16 -15 19 -25 0
-18 0
8 12 13 -1 0
-25 7 15 -14 -3 0
-24 16 -16 -17 0
-19 20 -11 -2 0
19 20 -11 0
-13 -4 15 0
12 5 0
2 5 6 -21 -9 0
2 4 -24 -21 23 0
